p edge 50 135 20
v 6 5 6 7 11 28 35
v 1 29
v 3 12 21 42
v 4 16 30 44 46
v 3 4 25 43
v 3 13 14 36
v 1 18
v 1 37
v 3 24 27 31
v 3 9 10 49
v 1 34
v 3 1 32 40
v 3 17 20 39
v 2 3 38
v 1 48
v 2 8 50
v 2 26 47
v 1 19
v 3 22 23 33
v 4 2 15 41 45
e 1 7
e 1 8
e 1 22
e 1 31
e 1 45
e 2 3
e 2 13
e 2 24
e 2 41
e 2 43
e 2 49
e 3 7
e 3 24
e 3 26
e 3 38
e 3 40
e 3 42
e 3 45
e 4 11
e 4 12
e 4 15
e 4 16
e 4 24
e 4 30
e 5 11
e 5 18
e 5 23
e 5 29
e 5 39
e 5 40
e 5 46
e 6 19
e 6 21
e 6 38
e 7 9
e 7 34
e 7 42
e 8 12
e 8 15
e 8 29
e 8 45
e 9 25
e 9 32
e 9 39
e 9 42
e 9 43
e 9 46
e 10 33
e 10 36
e 10 48
e 11 15
e 11 18
e 11 35
e 11 49
e 12 47
e 13 21
e 13 33
e 13 41
e 13 42
e 13 47
e 14 18
e 14 22
e 14 27
e 15 26
e 15 29
e 15 36
e 16 32
e 16 34
e 16 38
e 16 43
e 16 50
e 17 32
e 17 38
e 17 46
e 18 19
e 18 25
e 18 39
e 18 40
e 18 41
e 18 45
e 18 48
e 18 50
e 20 29
e 20 38
e 20 49
e 21 38
e 21 44
e 21 47
e 22 29
e 23 39
e 23 49
e 24 31
e 24 36
e 24 45
e 25 28
e 25 31
e 25 33
e 25 35
e 26 31
e 26 40
e 26 44
e 27 41
e 27 42
e 29 45
e 30 32
e 30 33
e 30 38
e 31 32
e 32 38
e 32 44
e 32 45
e 33 34
e 33 35
e 33 39
e 33 40
e 33 43
e 34 46
e 35 40
e 35 42
e 35 43
e 35 50
e 37 39
e 37 45
e 38 39
e 39 40
e 39 42
e 40 49
e 40 50
e 41 44
e 41 45
e 41 46
e 42 47
e 43 45
e 43 46
e 44 45
